Mack/Bortfeldt(2008)
Bin-Packing-Problem
BP-RG/SBSBPP/SSSCSP
Testcase-ID	3
Problem-ID	56
no_item_types	15
no_items	1353
CONTAINER_DATA (l,w,h)	485	131	118
ITEMS_DATA:
Type	x	y	z	no_items
1	94	88	50	83
2	114	80	44	90
3	86	84	45	88
4	72	67	56	101
5	108	52	45	98
6	78	73	40	85
7	71	61	52	86
8	81	56	46	76
9	75	75	36	108
10	69	63	46	74
11	65	51	50	115
12	70	54	37	81
13	81	45	34	83
14	68	44	27	93
15	84	39	22	92
